100
300
239
237
236
236
235
231
229
225
222
219
217
215
215
213
213
212
211
210
209
209
207
207
196
196
193
192
192
189
189
186
184
184
178
177
176
176
175
173
171
170
167
165
160
158
158
157
157
157
155
154
152
150
148
148
145
144
144
142
141
140
139
136
134
134
132
129
125
125
125
124
123
123
122
120
120
116
114
114
104
102
102
101
101
101
98
97
88
85
85
81
81
81
78
78
77
75
67
64
64
63
